p wcnf 165 1184 154
154 -1 -2 0
154 -1 -3 0
154 -1 -4 0
154 -2 -3 0
154 -2 -4 0
154 -3 -4 0
154 1 2 3 4 0
154 -9 -10 0
154 -9 -11 0
154 -9 -12 0
154 -10 -11 0
154 -10 -12 0
154 -11 -12 0
154 9 10 11 12 0
154 -13 -14 0
154 -13 -15 0
154 -13 -16 0
154 -14 -15 0
154 -14 -16 0
154 -15 -16 0
154 13 14 15 16 0
154 -17 -18 0
154 -17 -19 0
154 -17 -20 0
154 -18 -19 0
154 -18 -20 0
154 -19 -20 0
154 17 18 19 20 0
154 -28 -29 0
154 -28 -30 0
154 -28 -31 0
154 -29 -30 0
154 -29 -31 0
154 -30 -31 0
154 28 29 30 31 0
154 -32 -33 0
154 -32 -34 0
154 -32 -35 0
154 -33 -34 0
154 -33 -35 0
154 -34 -35 0
154 32 33 34 35 0
154 -44 -45 0
154 -44 -46 0
154 -44 -47 0
154 -45 -46 0
154 -45 -47 0
154 -46 -47 0
154 44 45 46 47 0
154 -48 -49 0
154 -48 -50 0
154 -48 -51 0
154 -49 -50 0
154 -49 -51 0
154 -50 -51 0
154 48 49 50 51 0
154 -53 -54 0
154 -53 -55 0
154 -53 -56 0
154 -54 -55 0
154 -54 -56 0
154 -55 -56 0
154 53 54 55 56 0
154 -58 -59 0
154 -58 -60 0
154 -58 -61 0
154 -59 -60 0
154 -59 -61 0
154 -60 -61 0
154 58 59 60 61 0
154 -77 -78 0
154 -77 -79 0
154 -77 -80 0
154 -78 -79 0
154 -78 -80 0
154 -79 -80 0
154 77 78 79 80 0
154 -87 -88 0
154 -87 -89 0
154 -87 -90 0
154 -88 -89 0
154 -88 -90 0
154 -89 -90 0
154 87 88 89 90 0
154 -91 -92 0
154 -91 -93 0
154 -91 -94 0
154 -92 -93 0
154 -92 -94 0
154 -93 -94 0
154 91 92 93 94 0
154 -96 -97 0
154 -96 -98 0
154 -96 -99 0
154 -97 -98 0
154 -97 -99 0
154 -98 -99 0
154 96 97 98 99 0
154 -107 -108 0
154 -107 -109 0
154 -107 -110 0
154 -108 -109 0
154 -108 -110 0
154 -109 -110 0
154 107 108 109 110 0
154 -115 -116 0
154 -115 -117 0
154 -116 -117 0
154 115 116 117 0
154 -118 -119 0
154 -118 -120 0
154 -118 -121 0
154 -119 -120 0
154 -119 -121 0
154 -120 -121 0
154 118 119 120 121 0
154 -122 -123 0
154 -122 -124 0
154 -122 -125 0
154 -123 -124 0
154 -123 -125 0
154 -124 -125 0
154 122 123 124 125 0
154 -126 -127 0
154 -126 -128 0
154 -126 -129 0
154 -127 -128 0
154 -127 -129 0
154 -128 -129 0
154 126 127 128 129 0
154 -130 -131 0
154 -130 -132 0
154 -130 -133 0
154 -131 -132 0
154 -131 -133 0
154 -132 -133 0
154 130 131 132 133 0
154 -135 -136 0
154 -135 -137 0
154 -135 -138 0
154 -136 -137 0
154 -136 -138 0
154 -137 -138 0
154 135 136 137 138 0
154 -141 -142 0
154 -141 -143 0
154 -141 -144 0
154 -142 -143 0
154 -142 -144 0
154 -143 -144 0
154 141 142 143 144 0
154 -147 -148 0
154 -147 -149 0
154 -147 -150 0
154 -148 -149 0
154 -148 -150 0
154 -149 -150 0
154 147 148 149 150 0
154 -154 -155 0
154 -154 -156 0
154 -154 -157 0
154 -155 -156 0
154 -155 -157 0
154 -156 -157 0
154 154 155 156 157 0
154 -158 -159 0
154 -158 -160 0
154 -158 -161 0
154 -159 -160 0
154 -159 -161 0
154 -160 -161 0
154 158 159 160 161 0
154 -162 -163 0
154 -162 -164 0
154 -162 -165 0
154 -163 -164 0
154 -163 -165 0
154 -164 -165 0
154 162 163 164 165 0
154 103 105 0
154 22 -32 0
154 22 -34 0
154 21 36 0
1 -21 -36 0
154 -91 102 0
154 -93 102 0
154 82 85 0
1 -82 -85 0
154 -17 -9 0
154 -18 -10 0
154 -19 -11 0
154 146 -130 0
154 146 -132 0
154 -162 152 0
154 -164 152 0
154 37 -13 0
154 37 -15 0
154 37 -9 0
154 37 -11 0
154 -91 81 0
154 -93 81 0
154 145 -162 0
154 145 -164 0
154 146 -147 0
154 146 -149 0
154 -9 -28 0
154 -10 -29 0
154 -11 -30 0
154 95 83 0
154 5 21 0
154 74 -77 0
154 74 -79 0
154 -32 -13 0
154 -33 -14 0
154 -34 -15 0
154 134 151 0
154 85 102 0
154 -44 62 0
154 -46 62 0
154 -162 -158 0
154 -163 -159 0
154 -164 -160 0
154 -58 62 0
154 -60 62 0
154 -130 -135 0
154 -131 -136 0
154 -132 -137 0
154 111 -87 0
154 111 -89 0
154 153 152 0
2 -153 -152 0
154 -96 83 0
154 -98 83 0
154 82 -77 0
154 82 -79 0
154 26 -32 0
154 26 -34 0
154 24 -29 0
154 106 104 0
154 84 85 0
154 145 -154 0
154 145 -156 0
154 38 39 0
154 103 100 0
154 151 152 0
154 -2 6 0
154 -141 152 0
154 -143 152 0
154 21 -9 0
154 21 -11 0
154 72 84 0
154 -33 24 0
154 74 83 0
154 37 21 0
1 -37 -21 0
154 84 101 0
154 68 114 -97 0
154 67 114 -92 0
154 151 -158 0
154 151 -160 0
154 -147 152 0
154 -149 152 0
154 21 62 0
154 73 -87 0
154 73 -89 0
154 111 95 0
154 101 -96 0
154 101 -98 0
154 -141 -158 0
154 -142 -159 0
154 -143 -160 0
154 111 -107 0
154 111 -109 0
154 81 86 0
154 57 81 0
154 36 -13 0
154 36 -15 0
154 52 81 0
154 57 100 0
154 72 -96 0
154 72 -98 0
154 36 -9 0
154 36 -11 0
154 -58 57 0
154 -60 57 0
154 74 73 0
154 76 66 114 0
154 105 102 0
154 67 66 0
1 -67 -66 0
154 103 85 0
154 66 114 -97 0
154 38 27 0
154 95 104 0
154 69 -87 0
154 69 -89 0
154 73 95 0
154 73 -107 0
154 73 -109 0
154 -77 102 0
154 -79 102 0
154 145 -130 0
154 145 -132 0
1 -145 -131 0
1 -145 -133 0
154 100 102 0
154 101 102 0
154 -96 104 0
154 -98 104 0
154 103 101 0
154 -9 -13 0
154 -10 -14 0
154 -11 -15 0
154 -97 75 0
154 72 102 0
154 100 105 0
154 101 105 0
154 134 -158 0
154 134 -160 0
154 106 95 0
154 -87 102 0
154 -89 102 0
154 -130 -118 0
154 -131 -119 0
154 -132 -120 0
154 42 39 0
154 74 104 0
154 69 95 0
154 76 -78 0
154 145 -147 0
154 145 -149 0
154 8 -17 0
154 8 -19 0
154 -87 105 0
154 -89 105 0
154 113 -107 0
154 113 -109 0
154 140 151 0
154 -10 24 0
154 82 104 0
154 -58 -44 0
154 -59 -45 0
154 -60 -46 0
154 95 -87 0
154 95 -89 0
154 -107 102 0
154 -109 102 0
154 -77 81 0
154 -79 81 0
154 86 85 0
1 -86 -85 0
154 -107 105 0
154 -109 105 0
154 101 81 0
154 101 100 0
154 -96 -87 0
154 -97 -88 0
154 -98 -89 0
154 134 146 0
154 36 27 0
154 -162 -135 0
154 -163 -136 0
154 -164 -137 0
154 72 81 0
154 146 -135 0
154 146 -137 0
154 -118 -135 0
154 -119 -136 0
154 -120 -137 0
154 -91 83 0
154 -93 83 0
154 -87 81 0
154 -89 81 0
154 -53 -58 0
154 -54 -59 0
154 -55 -60 0
154 -87 100 0
154 -89 100 0
154 146 -141 0
154 146 -143 0
154 7 -18 0
154 74 -87 0
154 74 -89 0
154 57 52 0
154 95 -107 0
154 95 -109 0
154 22 36 0
154 23 26 0
2 -23 -26 0
154 24 -14 0
154 111 -96 0
154 111 -98 0
154 40 39 0
154 37 -32 0
154 37 -34 0
154 139 -118 0
154 139 -120 0
154 -126 -122 0
154 -127 -123 0
154 -128 -124 0
154 145 152 0
154 73 84 0
1 -130 -116 0
1 -130 -117 0
154 -131 -115 0
154 -132 -116 0
1 -132 -117 0
1 -133 -116 0
1 -133 -117 0
154 -107 100 0
154 -109 100 0
154 -96 -107 0
154 -97 -108 0
154 -98 -109 0
154 23 8 0
154 139 145 0
154 -130 -154 0
154 -131 -155 0
154 -132 -156 0
154 76 70 0
1 -76 -70 0
154 153 139 0
154 100 85 0
154 101 85 0
154 -92 70 0
154 65 67 0
154 74 95 0
154 112 -107 0
154 112 -109 0
154 57 73 0
154 74 -107 0
154 74 -109 0
154 52 73 0
154 26 36 0
154 73 -96 0
154 73 -98 0
154 106 105 0
1 -106 -105 0
154 71 70 0
154 111 -91 0
154 111 -93 0
154 69 84 0
2 -69 -84 0
154 -87 85 0
154 -89 85 0
154 57 43 0
154 111 102 0
154 139 -162 0
154 139 -164 0
154 37 38 0
154 68 114 -78 0
154 52 43 0
154 146 140 0
154 65 64 0
1 -65 -64 0
154 111 105 0
1 -111 -105 0
154 67 114 75 0
154 101 -77 0
154 101 -79 0
154 76 75 0
154 -91 104 0
154 -93 104 0
154 95 86 0
154 -92 75 0
154 72 -77 0
154 72 -79 0
154 -135 -147 0
154 -136 -148 0
154 -137 -149 0
154 105 83 0
154 69 -96 0
154 69 -98 0
154 134 -135 0
154 134 -137 0
154 36 -32 0
154 36 -34 0
154 71 75 0
1 -71 -75 0
154 73 102 0
2 -73 -102 0
154 81 83 0
154 134 -141 0
154 134 -143 0
154 74 111 0
154 139 -154 0
154 139 -156 0
154 73 105 0
154 -130 -122 0
154 -131 -123 0
154 -132 -124 0
154 -77 83 0
154 -79 83 0
154 -154 152 0
154 -156 152 0
154 23 -13 0
154 23 -15 0
154 111 100 0
154 -58 52 0
154 -60 52 0
154 23 -9 0
154 23 -11 0
154 106 -91 0
154 106 -93 0
154 140 152 0
154 72 83 0
154 74 86 0
154 36 -17 0
154 36 -19 0
154 42 41 0
2 -42 -41 0
154 69 102 0
154 67 114 -88 0
154 41 40 0
154 76 -88 0
154 82 86 0
1 -82 -86 0
154 153 145 0
154 -91 -87 0
154 -92 -88 0
154 -93 -89 0
154 -141 -118 0
154 -142 -119 0
154 -143 -120 0
154 69 105 0
154 -154 -158 0
154 -155 -159 0
154 -156 -160 0
154 -130 -147 0
154 -131 -148 0
154 -132 -149 0
154 151 145 0
154 -48 43 0
154 -50 43 0
154 140 -158 0
154 140 -160 0
154 71 -88 0
154 73 82 0
154 73 81 0
154 73 100 0
154 -78 70 0
154 84 -96 0
154 84 -98 0
154 134 140 0
154 23 21 0
154 151 -162 0
154 151 -164 0
154 105 104 0
154 76 -108 0
154 37 -28 0
154 37 -30 0
154 62 100 0
154 -88 70 0
154 -162 -154 0
154 -163 -155 0
154 -164 -156 0
154 69 82 0
154 69 81 0
154 95 -91 0
154 95 -93 0
154 68 114 75 0
154 69 100 0
154 -53 52 0
154 -55 52 0
154 81 104 0
2 -81 -104 0
154 8 -13 0
154 8 -15 0
154 8 -9 0
154 8 -11 0
154 -32 -28 0
154 -33 -29 0
154 -34 -30 0
154 111 101 0
154 134 -118 0
154 134 -120 0
1 -134 -119 0
1 -134 -121 0
154 95 105 0
154 -77 104 0
154 -79 104 0
154 52 74 0
154 111 106 0
154 101 104 0
154 -78 75 0
154 -96 -91 0
154 -97 -92 0
154 -98 -93 0
154 -96 102 0
154 -98 102 0
154 139 -130 0
154 139 -132 0
154 84 102 0
154 72 104 0
154 73 85 0
154 23 27 0
154 -96 105 0
154 -98 105 0
154 -87 104 0
154 -89 104 0
154 67 63 0
154 76 67 114 0
154 103 -96 0
154 103 -98 0
154 151 -154 0
154 151 -156 0
154 66 114 75 0
154 74 -91 0
154 74 -93 0
154 134 -162 0
154 134 -164 0
154 -141 -154 0
154 -142 -155 0
154 -143 -156 0
154 37 36 0
1 -37 -36 0
154 153 151 0
154 -53 43 0
154 -55 43 0
154 139 -158 0
154 139 -160 0
154 74 105 0
154 73 106 0
154 22 27 0
154 82 -91 0
154 82 -93 0
154 7 6 0
1 -7 -6 0
154 7 -14 0
154 -107 104 0
154 -109 104 0
154 68 114 -88 0
154 69 85 0
154 -108 75 0
154 95 100 0
2 -95 -100 0
154 7 -10 0
154 5 57 0
154 73 -77 0
154 73 -79 0
154 -91 86 0
154 -93 86 0
154 -77 -87 0
154 -78 -88 0
154 -79 -89 0
154 36 -28 0
154 36 -30 0
154 106 101 0
154 65 66 0
154 84 82 0
154 84 81 0
154 -96 100 0
154 -98 100 0
154 68 67 0
1 -68 -67 0
154 69 -77 0
154 69 -79 0
154 38 40 0
2 -38 -40 0
154 72 -87 0
154 72 -89 0
154 103 102 0
154 113 106 0
1 -113 -106 0
154 7 24 0
154 66 114 -88 0
154 146 151 0
1 -146 -151 0
154 57 62 0
2 -57 -62 0
154 26 27 0
154 68 64 0
154 74 100 0
154 134 -154 0
154 134 -156 0
1 -134 -155 0
1 -134 -157 0
154 -162 -147 0
154 -163 -148 0
154 -164 -149 0
154 -48 62 0
154 -50 62 0
154 5 -1 0
154 5 -3 0
154 140 -135 0
154 140 -137 0
154 95 85 0
154 -141 -122 0
154 -142 -123 0
154 -143 -124 0
154 72 95 0
154 67 114 -97 0
154 -32 -9 0
154 -33 -10 0
154 -34 -11 0
154 21 26 0
154 73 72 0
154 72 -107 0
154 72 -109 0
154 43 72 0
2 -43 -72 0
154 76 68 114 0
154 111 112 0
1 -111 -112 0
154 39 27 0
2 -39 -27 0
154 -96 85 0
154 -98 85 0
154 140 139 0
1 -140 -139 0
154 151 -130 0
154 151 -132 0
154 103 82 0
154 103 81 0
154 21 8 0
154 134 -126 0
154 134 -128 0
154 23 -32 0
154 23 -34 0
154 151 -147 0
154 151 -149 0
1 -151 -148 0
1 -151 -150 0
154 -141 -147 0
154 -142 -148 0
154 -143 -149 0
154 95 -77 0
154 95 -79 0
154 -115 -119 0
1 -116 -118 0
154 -116 -120 0
1 -116 -121 0
1 -117 -118 0
1 -117 -120 0
1 -117 -121 0
154 69 72 0
154 86 102 0
154 74 85 0
154 153 -158 0
154 153 -160 0
154 111 103 0
154 76 -92 0
154 -18 6 0
154 -17 -13 0
154 -18 -14 0
154 -19 -15 0
154 -96 -77 0
154 -97 -78 0
154 -98 -79 0
154 23 -17 0
154 23 -19 0
154 82 83 0
154 84 -77 0
154 84 -79 0
154 134 -122 0
154 134 -124 0
154 72 111 0
154 27 -17 0
154 27 -19 0
154 146 152 0
154 74 101 0
154 -44 57 0
154 -46 57 0
154 74 106 0
154 -91 105 0
154 -93 105 0
154 42 40 0
154 -77 86 0
154 -79 86 0
154 100 86 0
154 101 86 0
154 71 -92 0
154 73 104 0
154 106 -87 0
154 106 -89 0
154 72 86 0
154 -147 -158 0
154 -148 -159 0
154 -149 -160 0
154 22 -17 0
154 22 -19 0
154 134 -130 0
154 134 -132 0
154 -18 24 0
154 139 -135 0
154 139 -137 0
1 -139 -136 0
1 -139 -138 0
154 153 146 0
154 -87 86 0
154 -89 86 0
154 73 103 0
154 43 74 0
154 113 112 0
1 -113 -112 0
154 146 -158 0
154 146 -160 0
154 84 83 0
154 134 -147 0
154 134 -149 0
154 104 83 0
154 37 39 0
154 25 6 0
154 25 -14 0
154 139 -141 0
154 139 -143 0
154 25 -10 0
154 69 104 0
154 140 -118 0
154 140 -120 0
154 -126 -118 0
154 -127 -119 0
154 -128 -120 0
154 21 -13 0
154 21 -15 0
154 106 103 0
154 64 66 0
154 -91 100 0
154 -93 100 0
154 103 -77 0
154 103 -79 0
154 140 145 0
154 69 103 0
154 106 -107 0
154 106 -109 0
154 140 -154 0
154 140 -156 0
154 26 -17 0
154 26 -19 0
154 39 -32 0
154 39 -34 0
154 -48 57 0
154 -50 57 0
154 25 24 0
1 -25 -24 0
154 74 72 0
154 -97 70 0
154 140 -162 0
154 140 -164 0
154 52 100 0
154 103 83 0
154 37 27 0
154 -53 62 0
154 -55 62 0
154 68 114 -92 0
154 134 152 0
154 81 102 0
154 -91 85 0
154 -93 85 0
154 101 -91 0
154 101 -93 0
154 -162 -141 0
154 -163 -142 0
154 -164 -143 0
154 68 66 0
1 -68 -66 0
154 81 105 0
154 -10 6 0
154 84 104 0
154 72 -91 0
154 72 -93 0
154 23 -28 0
154 23 -30 0
154 -77 105 0
154 -79 105 0
154 -127 -115 0
154 -128 -116 0
154 153 -135 0
154 153 -137 0
154 85 83 0
154 27 -28 0
154 27 -30 0
154 23 5 0
154 72 105 0
154 38 -32 0
154 38 -34 0
154 -48 -44 0
154 -49 -45 0
154 -50 -46 0
154 66 114 -92 0
154 82 -87 0
154 82 -89 0
154 67 114 -78 0
154 6 -14 0
154 151 -135 0
154 151 -137 0
154 153 -162 0
154 153 -164 0
154 21 27 0
154 153 -141 0
154 153 -143 0
154 -141 -135 0
1 -141 -137 0
1 -141 -138 0
154 -142 -136 0
1 -143 -135 0
154 -143 -137 0
1 -143 -138 0
1 -144 -135 0
1 -144 -137 0
1 -144 -138 0
154 22 -28 0
154 22 -30 0
154 151 -141 0
154 151 -143 0
154 22 26 0
154 -53 57 0
154 -55 57 0
154 74 103 0
2 -74 -103 0
154 71 -78 0
154 145 -158 0
154 145 -160 0
154 73 111 0
154 86 83 0
154 140 -126 0
154 140 -128 0
154 74 69 0
154 73 86 0
154 22 8 0
2 -22 -8 0
154 -77 100 0
154 -79 100 0
154 23 36 0
154 84 -87 0
154 84 -89 0
154 72 82 0
154 103 104 0
154 82 95 0
154 72 100 0
154 23 22 0
154 5 52 0
2 -5 -52 0
154 -130 -126 0
154 -131 -127 0
154 -132 -128 0
154 26 -28 0
154 26 -30 0
154 106 -96 0
154 106 -98 0
154 5 -17 0
154 5 -19 0
154 146 139 0
154 105 85 0
154 153 140 0
154 140 -122 0
154 140 -124 0
154 69 86 0
154 23 37 0
154 84 95 0
154 65 63 0
1 -65 -63 0
154 81 85 0
154 39 -28 0
154 39 -30 0
154 -53 -44 0
154 -54 -45 0
154 -55 -46 0
154 100 83 0
154 101 83 0
2 -101 -83 0
154 -77 85 0
154 -79 85 0
154 -44 52 0
154 -46 52 0
154 140 -130 0
154 140 -132 0
154 57 72 0
154 5 43 0
154 52 72 0
154 -154 -147 0
1 -154 -149 0
1 -154 -150 0
154 -155 -148 0
1 -156 -147 0
154 -156 -149 0
1 -156 -150 0
1 -157 -147 0
1 -157 -149 0
1 -157 -150 0
154 103 -87 0
154 103 -89 0
154 106 102 0
154 72 85 0
154 22 62 0
154 37 -17 0
154 37 -19 0
154 140 -147 0
154 140 -149 0
154 27 -13 0
154 27 -15 0
154 27 -9 0
154 27 -11 0
154 -87 83 0
154 -89 83 0
154 25 -33 0
154 23 62 0
154 -53 -48 0
154 -54 -49 0
154 -55 -50 0
154 86 104 0
154 21 -32 0
154 21 -34 0
154 22 -13 0
154 22 -15 0
154 95 -96 0
154 95 -98 0
154 139 -126 0
154 139 -128 0
154 22 -9 0
154 22 -11 0
154 72 101 0
154 72 106 0
154 43 81 0
154 74 84 0
154 43 100 0
154 -44 43 0
154 -46 43 0
154 25 -18 0
154 103 95 0
154 103 -107 0
154 103 -109 0
154 -58 43 0
154 -60 43 0
154 42 38 0
154 21 -17 0
154 21 -19 0
154 73 -91 0
154 73 -93 0
154 -48 52 0
154 -50 52 0
154 -96 86 0
154 -98 86 0
154 66 114 -78 0
154 84 86 0
154 38 -28 0
154 38 -30 0
154 106 100 0
154 139 -122 0
154 139 -124 0
154 26 -13 0
154 26 -15 0
154 74 -96 0
154 74 -98 0
154 146 145 0
1 -146 -145 0
154 134 139 0
154 26 -9 0
154 26 -11 0
154 95 102 0
154 57 74 0
154 -122 -135 0
154 -123 -136 0
154 -124 -137 0
154 22 21 0
154 100 104 0
154 145 -135 0
154 145 -137 0
154 82 -96 0
154 82 -98 0
154 139 151 0
154 69 -91 0
154 69 -93 0
154 145 -141 0
154 145 -143 0
154 -130 152 0
154 -132 152 0
154 153 -154 0
154 153 -156 0
154 139 -147 0
154 139 -149 0
154 5 26 0
154 -88 75 0
154 146 -162 0
154 146 -164 0
154 74 102 0
154 38 36 0
154 5 8 0
154 103 86 0
154 95 81 0
154 82 102 0
154 -17 -28 0
154 -18 -29 0
154 -19 -30 0
154 -135 152 0
154 -137 152 0
154 82 105 0
154 101 -87 0
154 101 -89 0
154 -96 81 0
154 -98 81 0
154 37 26 0
154 64 63 0
1 -64 -63 0
154 146 -154 0
154 146 -156 0
154 41 39 0
154 -141 -126 0
154 -142 -127 0
154 -143 -128 0
154 -135 -158 0
154 -136 -159 0
154 -137 -160 0
154 84 -91 0
154 84 -93 0
154 104 102 0
154 74 82 0
154 74 81 0
154 134 145 0
154 139 152 0
154 73 83 0
154 25 -29 0
154 84 105 0
154 82 81 0
154 101 95 0
154 72 103 0
154 -126 -135 0
154 -127 -136 0
154 -128 -137 0
154 101 -107 0
154 101 -109 0
154 -107 -87 0
154 -108 -88 0
154 -109 -89 0
154 21 -28 0
154 21 -30 0
154 82 100 0
154 -122 -118 0
154 -123 -119 0
154 -124 -120 0
154 76 -97 0
154 140 -141 0
154 140 -143 0
1 -140 -142 0
1 -140 -144 0
154 153 -130 0
154 153 -132 0
154 73 101 0
154 -1 8 0
154 -3 8 0
154 69 83 0
154 43 73 0
154 5 -13 0
154 5 -15 0
154 153 -147 0
154 153 -149 0
154 68 63 0
154 5 -9 0
154 5 -11 0
154 71 -97 0
154 111 104 0
154 27 -32 0
154 27 -34 0
154 5 62 0
154 103 -91 0
154 103 -93 0
154 84 100 0
154 -2 7 0
154 69 101 0
154 152 -158 0
154 152 -160 0
154 62 43 0
1 -4 0
1 -12 0
1 -16 0
1 -20 0
1 -31 0
1 -35 0
1 -47 0
1 -51 0
1 -56 0
1 -61 0
1 -80 0
1 -90 0
1 -94 0
1 -99 0
1 -110 0
2 -114 0
1 -115 0
1 -116 0
1 -125 0
1 -129 0
1 -161 0
1 -165 0
